p tw 70 76
1 2
2 13
3 4
3 28
4 5
5 6
5 43
6 63
7 8
8 9
9 10
10 11
11 12
12 14
13 24
14 15
15 16
16 17
17 18
18 19
19 20
20 21
21 22
22 23
23 25
23 26
24 35
25 66
26 27
27 28
28 29
29 30
30 31
31 32
32 33
33 34
34 36
35 46
36 37
37 38
38 39
39 40
39 41
40 66
41 42
42 43
43 44
44 45
45 47
46 57
47 48
48 49
49 50
50 51
51 52
52 53
53 54
54 55
55 56
56 58
57 68
57 7
58 59
58 60
59 66
60 61
61 62
62 63
63 64
64 65
65 66
66 67
68 69
69 70
69 9
70 3
